MnO2\(1\0\0)
1.0
        9.9654998779         0.0000000000         0.0000000000
        0.0000000000         8.8416996002         0.0000000000
        0.0000000000         0.0000000000        24.1044006348
   Mn    O
   24   48
Direct
     0.098860003         0.000000000         0.126509994
     0.766240001         0.000000000         0.251199991
     0.281740010         0.000000000         0.326810002
     0.583360016         0.000000000         0.050900001
     0.598860025         0.166669995         0.333220005
     0.266240001         0.166669995         0.044489998
     0.781740010         0.166669995         0.120099999
     0.083360001         0.166669995         0.257609993
     0.098860003         0.333330005         0.126509994
     0.766240001         0.333330005         0.251199991
     0.281740010         0.333330005         0.326810002
     0.583360016         0.333330005         0.050900001
     0.598860025         0.500000000         0.333220005
     0.266240001         0.500000000         0.044489998
     0.781740010         0.500000000         0.120099999
     0.083360001         0.500000000         0.257609993
     0.098860003         0.666670024         0.126509994
     0.766240001         0.666670024         0.251199991
     0.281740010         0.666670024         0.326810002
     0.583360016         0.666670024         0.050900001
     0.598860025         0.833329976         0.333220005
     0.266240001         0.833329976         0.044489998
     0.781740010         0.833329976         0.120099999
     0.083360001         0.833329976         0.257609993
     0.137109995         0.000000000         0.046750002
     0.727999985         0.000000000         0.330960006
     0.088820003         0.000000000         0.310999990
     0.776279986         0.000000000         0.066710003
     0.637109995         0.166669995         0.253459990
     0.228000000         0.166669995         0.124250002
     0.588819981         0.166669995         0.104280002
     0.276279986         0.166669995         0.273420006
     0.097879998         0.000000000         0.206709996
     0.767229974         0.000000000         0.170990005
     0.475760013         0.000000000         0.327219993
     0.389349997         0.000000000         0.050489999
     0.597880006         0.166669995         0.000000000
     0.267230004         0.166669995         0.377710015
     0.975759983         0.166669995         0.120499998
     0.889349997         0.166669995         0.257200003
     0.137109995         0.333330005         0.046750002
     0.727999985         0.333330005         0.330960006
     0.088820003         0.333330005         0.310999990
     0.776279986         0.333330005         0.066710003
     0.637109995         0.500000000         0.253459990
     0.228000000         0.500000000         0.124250002
     0.588819981         0.500000000         0.104280002
     0.276279986         0.500000000         0.273420006
     0.097879998         0.333330005         0.206709996
     0.767229974         0.333330005         0.170990005
     0.475760013         0.333330005         0.327219993
     0.389349997         0.333330005         0.050489999
     0.597880006         0.500000000         0.000000000
     0.267230004         0.500000000         0.377710015
     0.975759983         0.500000000         0.120499998
     0.889349997         0.500000000         0.257200003
     0.137109995         0.666670024         0.046750002
     0.727999985         0.666670024         0.330960006
     0.088820003         0.666670024         0.310999990
     0.776279986         0.666670024         0.066710003
     0.637109995         0.833329976         0.253459990
     0.228000000         0.833329976         0.124250002
     0.588819981         0.833329976         0.104280002
     0.276279986         0.833329976         0.273420006
     0.097879998         0.666670024         0.206709996
     0.767229974         0.666670024         0.170990005
     0.475760013         0.666670024         0.327219993
     0.389349997         0.666670024         0.050489999
     0.597880006         0.833329976         0.000000000
     0.267230004         0.833329976         0.377710015
     0.975759983         0.833329976         0.120499998
     0.889349997         0.833329976         0.257200003
